VERTICES = 202
EDGES = 1227
1 2
1 4
1 9
1 11
1 24
1 26
1 31
1 33
1 69
1 71
1 76
1 78
1 91
1 93
1 98
1 100
2 3
2 8
2 10
2 23
2 25
2 30
2 32
2 68
2 70
2 75
2 77
2 90
2 92
2 97
2 99
3 6
3 9
3 13
3 24
3 28
3 31
3 35
3 69
3 73
3 76
3 80
3 91
3 95
3 98
3 102
4 5
4 8
4 12
4 23
4 27
4 30
4 34
4 68
4 72
4 75
4 79
4 90
4 94
4 97
4 101
5 7
5 11
5 14
5 26
5 29
5 33
5 36
5 71
5 74
5 78
5 81
5 93
5 96
5 100
5 103
6 7
6 10
6 14
6 25
6 29
6 32
6 36
6 70
6 74
6 77
6 81
6 92
6 96
6 99
6 103
7 12
7 13
7 27
7 28
7 34
7 35
7 72
7 73
7 79
7 80
7 94
7 95
7 101
7 102
8 16
8 18
8 24
8 26
8 38
8 40
8 69
8 71
8 83
8 85
8 91
8 93
8 105
8 107
9 15
9 17
9 23
9 25
9 37
9 39
9 68
9 70
9 82
9 84
9 90
9 92
9 104
9 106
10 16
10 20
10 24
10 28
10 38
10 42
10 69
10 73
10 83
10 87
10 91
10 95
10 105
10 109
11 15
11 19
11 23
11 27
11 37
11 41
11 68
11 72
11 82
11 86
11 90
11 94
11 104
11 108
12 18
12 21
12 26
12 29
12 40
12 43
12 71
12 74
12 85
12 88
12 93
12 96
12 107
12 110
13 17
13 21
13 25
13 29
13 39
13 43
13 70
13 74
13 84
13 88
13 92
13 96
13 106
13 110
14 19
14 20
14 27
14 28
14 41
14 42
14 72
14 73
14 86
14 87
14 94
14 95
14 108
14 109
15 22
15 31
15 33
15 44
15 76
15 78
15 89
15 98
15 100
15 111
16 22
16 30
16 32
16 44
16 75
16 77
16 89
16 97
16 99
16 111
17 22
17 31
17 35
17 44
17 76
17 80
17 89
17 98
17 102
17 111
18 22
18 30
18 34
18 44
18 75
18 79
18 89
18 97
18 101
18 111
19 22
19 33
19 36
19 44
19 78
19 81
19 89
19 100
19 103
19 111
20 22
20 32
20 36
20 44
20 77
20 81
20 89
20 99
20 103
20 111
21 22
21 34
21 35
21 44
21 79
21 80
21 89
21 101
21 102
21 111
22 37
22 38
22 39
22 40
22 41
22 42
22 43
22 82
22 83
22 84
22 85
22 86
22 87
22 88
22 104
22 105
22 106
22 107
22 108
22 109
22 110
23 46
23 48
23 53
23 55
23 69
23 71
23 76
23 78
23 113
23 115
23 120
23 122
24 45
24 47
24 52
24 54
24 68
24 70
24 75
24 77
24 112
24 114
24 119
24 121
25 46
25 50
25 53
25 57
25 69
25 73
25 76
25 80
25 113
25 117
25 120
25 124
26 45
26 49
26 52
26 56
26 68
26 72
26 75
26 79
26 112
26 116
26 119
26 123
27 48
27 51
27 55
27 58
27 71
27 74
27 78
27 81
27 115
27 118
27 122
27 125
28 47
28 51
28 54
28 58
28 70
28 74
28 77
28 81
28 114
28 118
28 121
28 125
29 49
29 50
29 56
29 57
29 72
29 73
29 79
29 80
29 116
29 117
29 123
29 124
30 46
30 48
30 60
30 62
30 69
30 71
30 83
30 85
30 113
30 115
30 127
30 129
31 45
31 47
31 59
31 61
31 68
31 70
31 82
31 84
31 112
31 114
31 126
31 128
32 46
32 50
32 60
32 64
32 69
32 73
32 83
32 87
32 113
32 117
32 127
32 131
33 45
33 49
33 59
33 63
33 68
33 72
33 82
33 86
33 112
33 116
33 126
33 130
34 48
34 51
34 62
34 65
34 71
34 74
34 85
34 88
34 115
34 118
34 129
34 132
35 47
35 51
35 61
35 65
35 70
35 74
35 84
35 88
35 114
35 118
35 128
35 132
36 49
36 50
36 63
36 64
36 72
36 73
36 86
36 87
36 116
36 117
36 130
36 131
37 53
37 55
37 66
37 76
37 78
37 89
37 120
37 122
37 133
38 52
38 54
38 66
38 75
38 77
38 89
38 119
38 121
38 133
39 53
39 57
39 66
39 76
39 80
39 89
39 120
39 124
39 133
40 52
40 56
40 66
40 75
40 79
40 89
40 119
40 123
40 133
41 55
41 58
41 66
41 78
41 81
41 89
41 122
41 125
41 133
42 54
42 58
42 66
42 77
42 81
42 89
42 121
42 125
42 133
43 56
43 57
43 66
43 79
43 80
43 89
43 123
43 124
43 133
44 59
44 60
44 61
44 62
44 63
44 64
44 65
44 82
44 83
44 84
44 85
44 86
44 87
44 88
44 126
44 127
44 128
44 129
44 130
44 131
44 132
45 67
45 91
45 93
45 98
45 100
45 134
46 67
46 90
46 92
46 97
46 99
46 134
47 67
47 91
47 95
47 98
47 102
47 134
48 67
48 90
48 94
48 97
48 101
48 134
49 67
49 93
49 96
49 100
49 103
49 134
50 67
50 92
50 96
50 99
50 103
50 134
51 67
51 94
51 95
51 101
51 102
51 134
52 67
52 91
52 93
52 105
52 107
52 134
53 67
53 90
53 92
53 104
53 106
53 134
54 67
54 91
54 95
54 105
54 109
54 134
55 67
55 90
55 94
55 104
55 108
55 134
56 67
56 93
56 96
56 107
56 110
56 134
57 67
57 92
57 96
57 106
57 110
57 134
58 67
58 94
58 95
58 108
58 109
58 134
59 67
59 98
59 100
59 111
59 134
60 67
60 97
60 99
60 111
60 134
61 67
61 98
61 102
61 111
61 134
62 67
62 97
62 101
62 111
62 134
63 67
63 100
63 103
63 111
63 134
64 67
64 99
64 103
64 111
64 134
65 67
65 101
65 102
65 111
65 134
66 67
66 104
66 105
66 106
66 107
66 108
66 109
66 110
66 134
67 112
67 113
67 114
67 115
67 116
67 117
67 118
67 119
67 120
67 121
67 122
67 123
67 124
67 125
67 126
67 127
67 128
67 129
67 130
67 131
67 132
67 133
68 136
68 138
68 143
68 145
68 158
68 160
68 165
68 167
69 135
69 137
69 142
69 144
69 157
69 159
69 164
69 166
70 136
70 140
70 143
70 147
70 158
70 162
70 165
70 169
71 135
71 139
71 142
71 146
71 157
71 161
71 164
71 168
72 138
72 141
72 145
72 148
72 160
72 163
72 167
72 170
73 137
73 141
73 144
73 148
73 159
73 163
73 166
73 170
74 139
74 140
74 146
74 147
74 161
74 162
74 168
74 169
75 136
75 138
75 150
75 152
75 158
75 160
75 172
75 174
76 135
76 137
76 149
76 151
76 157
76 159
76 171
76 173
77 136
77 140
77 150
77 154
77 158
77 162
77 172
77 176
78 135
78 139
78 149
78 153
78 157
78 161
78 171
78 175
79 138
79 141
79 152
79 155
79 160
79 163
79 174
79 177
80 137
80 141
80 151
80 155
80 159
80 163
80 173
80 177
81 139
81 140
81 153
81 154
81 161
81 162
81 175
81 176
82 143
82 145
82 156
82 165
82 167
82 178
83 142
83 144
83 156
83 164
83 166
83 178
84 143
84 147
84 156
84 165
84 169
84 178
85 142
85 146
85 156
85 164
85 168
85 178
86 145
86 148
86 156
86 167
86 170
86 178
87 144
87 148
87 156
87 166
87 170
87 178
88 146
88 147
88 156
88 168
88 169
88 178
89 149
89 150
89 151
89 152
89 153
89 154
89 155
89 171
89 172
89 173
89 174
89 175
89 176
89 177
90 136
90 138
90 143
90 145
90 180
90 182
90 187
90 189
91 135
91 137
91 142
91 144
91 179
91 181
91 186
91 188
92 136
92 140
92 143
92 147
92 180
92 184
92 187
92 191
93 135
93 139
93 142
93 146
93 179
93 183
93 186
93 190
94 138
94 141
94 145
94 148
94 182
94 185
94 189
94 192
95 137
95 141
95 144
95 148
95 181
95 185
95 188
95 192
96 139
96 140
96 146
96 147
96 183
96 184
96 190
96 191
97 136
97 138
97 150
97 152
97 180
97 182
97 194
97 196
98 135
98 137
98 149
98 151
98 179
98 181
98 193
98 195
99 136
99 140
99 150
99 154
99 180
99 184
99 194
99 198
100 135
100 139
100 149
100 153
100 179
100 183
100 193
100 197
101 138
101 141
101 152
101 155
101 182
101 185
101 196
101 199
102 137
102 141
102 151
102 155
102 181
102 185
102 195
102 199
103 139
103 140
103 153
103 154
103 183
103 184
103 197
103 198
104 143
104 145
104 156
104 187
104 189
104 200
105 142
105 144
105 156
105 186
105 188
105 200
106 143
106 147
106 156
106 187
106 191
106 200
107 142
107 146
107 156
107 186
107 190
107 200
108 145
108 148
108 156
108 189
108 192
108 200
109 144
109 148
109 156
109 188
109 192
109 200
110 146
110 147
110 156
110 190
110 191
110 200
111 149
111 150
111 151
111 152
111 153
111 154
111 155
111 193
111 194
111 195
111 196
111 197
111 198
111 199
112 158
112 160
112 165
112 167
112 201
113 157
113 159
113 164
113 166
113 201
114 158
114 162
114 165
114 169
114 201
115 157
115 161
115 164
115 168
115 201
116 160
116 163
116 167
116 170
116 201
117 159
117 163
117 166
117 170
117 201
118 161
118 162
118 168
118 169
118 201
119 158
119 160
119 172
119 174
119 201
120 157
120 159
120 171
120 173
120 201
121 158
121 162
121 172
121 176
121 201
122 157
122 161
122 171
122 175
122 201
123 160
123 163
123 174
123 177
123 201
124 159
124 163
124 173
124 177
124 201
125 161
125 162
125 175
125 176
125 201
126 165
126 167
126 178
126 201
127 164
127 166
127 178
127 201
128 165
128 169
128 178
128 201
129 164
129 168
129 178
129 201
130 167
130 170
130 178
130 201
131 166
131 170
131 178
131 201
132 168
132 169
132 178
132 201
133 171
133 172
133 173
133 174
133 175
133 176
133 177
133 201
134 179
134 180
134 181
134 182
134 183
134 184
134 185
134 186
134 187
134 188
134 189
134 190
134 191
134 192
134 193
134 194
134 195
134 196
134 197
134 198
134 199
134 200
135 202
136 202
137 202
138 202
139 202
140 202
141 202
142 202
143 202
144 202
145 202
146 202
147 202
148 202
149 202
150 202
151 202
152 202
153 202
154 202
155 202
156 202
157 202
158 202
159 202
160 202
161 202
162 202
163 202
164 202
165 202
166 202
167 202
168 202
169 202
170 202
171 202
172 202
173 202
174 202
175 202
176 202
177 202
178 202
179 202
180 202
181 202
182 202
183 202
184 202
185 202
186 202
187 202
188 202
189 202
190 202
191 202
192 202
193 202
194 202
195 202
196 202
197 202
198 202
199 202
200 202
201 202
